clingo version 5.7.1
Reading from stdin
Solving...
SATISFIABLE

Models       : 40104513
Calls        : 1
Time         : 5645.215s (Solving: 5640.33s 1st Model: 0.01s Unsat: 0.01s)
CPU Time     : 5644.889s
